1 10 30
3907
  3.6   1.9  10.0 10056.0   0.0
  1.3 6033.6 421.6
  0.9 4473.9 312.6
  1.8 8574.5 599.1
  1.0 4955.1 346.2
  2.2 10717.8 748.9
  1.2 5852.4 408.9
  1.6 7662.3 535.4
  1.7 8267.0 577.7
  2.2 10443.8 729.8
  1.9 8967.1 626.6
  764
  807
  681
 1359
 1308
  714
  638
 1401
 1329
 1297
 1461
 1377
 1170
  795
  534
 1495
  978
 1275
 1023
  899
 1061
  884
 1208
 1258
 1494
  960
 1147
  680
  751
 1331
